100
128
18
9
21
62
19
7
32
7
16
47
40
20
14
10
47
39
13
13
9
27
22
33
6
39
7
49
40
24
62
3
37
22
19
43
44
59
50
40
22
15
51
18
35
35
13
46
14
64
44
21
60
1
38
46
64
36
36
55
62
64
58
52
29
19
19
16
16
45
55
27
50
31
47
18
17
7
27
53
28
20
43
3
24
58
30
52
21
25
41
23
31
47
1
2
46
52
36
40
33
32